Code 2134
Dimension, Median 
   128       16     
 Facility, Client, Transportation Cost
     1        1           0
     1        2           1
     1        3           4
     1        5           4
     1        9           3
     1       17           4
     1       33           4
     1       65           1
     2        1           3
     2        2           0
     2        4           3
     2        6           1
     2       10           0
     2       18           1
     2       34           0
     2       66           4
     3        1           1
     3        3           4
     3        4           0
     3        7           4
     3       11           4
     3       19           4
     3       35           4
     3       67           3
     4        2           0
     4        3           3
     4        4           1
     4        8           1
     4       12           2
     4       20           1
     4       36           0
     4       68           4
     5        1           1
     5        5           1
     5        6           4
     5        7           0
     5       13           4
     5       21           2
     5       37           4
     5       69           1
     6        2           0
     6        5           2
     6        6           0
     6        8           4
     6       14           2
     6       22           3
     6       38           4
     6       70           4
     7        3           1
     7        5           1
     7        7           2
     7        8           1
     7       15           4
     7       23           2
     7       39           1
     7       71           1
     8        4           4
     8        6           3
     8        7           0
     8        8           3
     8       16           4
     8       24           2
     8       40           1
     8       72           0
     9        1           3
     9        9           3
     9       10           4
     9       11           2
     9       13           3
     9       25           1
     9       41           4
     9       73           4
    10        2           0
    10        9           3
    10       10           1
    10       12           2
    10       14           3
    10       26           1
    10       42           3
    10       74           3
    11        3           0
    11        9           0
    11       11           2
    11       12           4
    11       15           3
    11       27           2
    11       43           4
    11       75           4
    12        4           3
    12       10           2
    12       11           2
    12       12           1
    12       16           3
    12       28           3
    12       44           0
    12       76           2
    13        5           4
    13        9           0
    13       13           1
    13       14           4
    13       15           0
    13       29           4
    13       45           2
    13       77           0
    14        6           0
    14       10           1
    14       13           1
    14       14           4
    14       16           3
    14       30           2
    14       46           2
    14       78           4
    15        7           4
    15       11           1
    15       13           2
    15       15           2
    15       16           2
    15       31           4
    15       47           1
    15       79           2
    16        8           4
    16       12           1
    16       14           1
    16       15           2
    16       16           4
    16       32           3
    16       48           4
    16       80           0
    17        1           1
    17       17           0
    17       18           4
    17       19           4
    17       21           0
    17       25           4
    17       49           4
    17       81           0
    18        2           2
    18       17           0
    18       18           2
    18       20           4
    18       22           3
    18       26           3
    18       50           4
    18       82           1
    19        3           0
    19       17           3
    19       19           2
    19       20           4
    19       23           1
    19       27           2
    19       51           3
    19       83           3
    20        4           4
    20       18           0
    20       19           3
    20       20           4
    20       24           3
    20       28           3
    20       52           2
    20       84           1
    21        5           3
    21       17           4
    21       21           2
    21       22           0
    21       23           4
    21       29           1
    21       53           4
    21       85           2
    22        6           4
    22       18           0
    22       21           2
    22       22           1
    22       24           4
    22       30           0
    22       54           4
    22       86           0
    23        7           3
    23       19           1
    23       21           1
    23       23           1
    23       24           1
    23       31           3
    23       55           4
    23       87           0
    24        8           2
    24       20           3
    24       22           2
    24       23           2
    24       24           4
    24       32           2
    24       56           3
    24       88           2
    25        9           0
    25       17           4
    25       25           3
    25       26           1
    25       27           0
    25       29           3
    25       57           3
    25       89           0
    26       10           3
    26       18           0
    26       25           1
    26       26           1
    26       28           0
    26       30           0
    26       58           1
    26       90           0
    27       11           4
    27       19           2
    27       25           4
    27       27           3
    27       28           2
    27       31           2
    27       59           2
    27       91           0
    28       12           2
    28       20           4
    28       26           1
    28       27           1
    28       28           0
    28       32           3
    28       60           3
    28       92           4
    29       13           0
    29       21           1
    29       25           0
    29       29           4
    29       30           0
    29       31           3
    29       61           3
    29       93           3
    30       14           0
    30       22           2
    30       26           1
    30       29           0
    30       30           0
    30       32           4
    30       62           1
    30       94           2
    31       15           4
    31       23           2
    31       27           4
    31       29           2
    31       31           0
    31       32           4
    31       63           0
    31       95           4
    32       16           2
    32       24           2
    32       28           2
    32       30           4
    32       31           0
    32       32           3
    32       64           4
    32       96           0
    33        1           0
    33       33           0
    33       34           3
    33       35           2
    33       37           1
    33       41           1
    33       49           0
    33       97           3
    34        2           1
    34       33           2
    34       34           0
    34       36           0
    34       38           3
    34       42           4
    34       50           3
    34       98           1
    35        3           3
    35       33           2
    35       35           2
    35       36           1
    35       39           3
    35       43           0
    35       51           3
    35       99           4
    36        4           3
    36       34           4
    36       35           4
    36       36           2
    36       40           2
    36       44           1
    36       52           3
    36      100           4
    37        5           1
    37       33           2
    37       37           2
    37       38           4
    37       39           1
    37       45           1
    37       53           0
    37      101           2
    38        6           2
    38       34           0
    38       37           2
    38       38           4
    38       40           0
    38       46           2
    38       54           1
    38      102           3
    39        7           2
    39       35           1
    39       37           0
    39       39           2
    39       40           0
    39       47           2
    39       55           0
    39      103           0
    40        8           1
    40       36           0
    40       38           0
    40       39           4
    40       40           2
    40       48           4
    40       56           2
    40      104           3
    41        9           4
    41       33           4
    41       41           3
    41       42           4
    41       43           2
    41       45           2
    41       57           0
    41      105           2
    42       10           0
    42       34           4
    42       41           0
    42       42           4
    42       44           4
    42       46           4
    42       58           3
    42      106           3
    43       11           0
    43       35           0
    43       41           3
    43       43           0
    43       44           4
    43       47           2
    43       59           1
    43      107           3
    44       12           1
    44       36           2
    44       42           1
    44       43           3
    44       44           2
    44       48           2
    44       60           0
    44      108           4
    45       13           0
    45       37           2
    45       41           4
    45       45           4
    45       46           2
    45       47           2
    45       61           4
    45      109           4
    46       14           4
    46       38           2
    46       42           1
    46       45           0
    46       46           3
    46       48           4
    46       62           3
    46      110           0
    47       15           1
    47       39           4
    47       43           1
    47       45           3
    47       47           2
    47       48           0
    47       63           2
    47      111           1
    48       16           4
    48       40           2
    48       44           0
    48       46           4
    48       47           3
    48       48           1
    48       64           3
    48      112           4
    49       17           1
    49       33           4
    49       49           4
    49       50           4
    49       51           0
    49       53           2
    49       57           4
    49      113           2
    50       18           2
    50       34           0
    50       49           0
    50       50           2
    50       52           0
    50       54           2
    50       58           1
    50      114           4
    51       19           1
    51       35           1
    51       49           3
    51       51           3
    51       52           4
    51       55           0
    51       59           2
    51      115           4
    52       20           1
    52       36           1
    52       50           2
    52       51           1
    52       52           3
    52       56           1
    52       60           3
    52      116           4
    53       21           1
    53       37           2
    53       49           3
    53       53           1
    53       54           4
    53       55           4
    53       61           3
    53      117           3
    54       22           1
    54       38           0
    54       50           4
    54       53           4
    54       54           1
    54       56           1
    54       62           3
    54      118           0
    55       23           2
    55       39           0
    55       51           0
    55       53           4
    55       55           4
    55       56           2
    55       63           4
    55      119           0
    56       24           1
    56       40           4
    56       52           2
    56       54           0
    56       55           3
    56       56           0
    56       64           0
    56      120           4
    57       25           2
    57       41           1
    57       49           3
    57       57           2
    57       58           1
    57       59           0
    57       61           1
    57      121           0
    58       26           3
    58       42           3
    58       50           1
    58       57           4
    58       58           2
    58       60           3
    58       62           3
    58      122           0
    59       27           1
    59       43           2
    59       51           1
    59       57           4
    59       59           4
    59       60           4
    59       63           3
    59      123           2
    60       28           4
    60       44           3
    60       52           4
    60       58           3
    60       59           2
    60       60           1
    60       64           1
    60      124           4
    61       29           2
    61       45           2
    61       53           4
    61       57           1
    61       61           1
    61       62           3
    61       63           1
    61      125           3
    62       30           2
    62       46           4
    62       54           1
    62       58           2
    62       61           4
    62       62           0
    62       64           2
    62      126           2
    63       31           4
    63       47           2
    63       55           1
    63       59           4
    63       61           4
    63       63           3
    63       64           2
    63      127           3
    64       32           1
    64       48           2
    64       56           1
    64       60           2
    64       62           2
    64       63           3
    64       64           4
    64      128           3
    65        1           2
    65       65           2
    65       66           1
    65       67           1
    65       69           3
    65       73           3
    65       81           3
    65       97           4
    66        2           2
    66       65           3
    66       66           4
    66       68           2
    66       70           1
    66       74           0
    66       82           2
    66       98           1
    67        3           0
    67       65           4
    67       67           1
    67       68           3
    67       71           0
    67       75           0
    67       83           2
    67       99           3
    68        4           4
    68       66           1
    68       67           0
    68       68           4
    68       72           4
    68       76           0
    68       84           2
    68      100           1
    69        5           1
    69       65           1
    69       69           3
    69       70           2
    69       71           4
    69       77           4
    69       85           2
    69      101           1
    70        6           3
    70       66           2
    70       69           0
    70       70           0
    70       72           3
    70       78           1
    70       86           4
    70      102           0
    71        7           3
    71       67           2
    71       69           4
    71       71           4
    71       72           4
    71       79           3
    71       87           1
    71      103           4
    72        8           3
    72       68           0
    72       70           3
    72       71           4
    72       72           4
    72       80           0
    72       88           2
    72      104           0
    73        9           0
    73       65           1
    73       73           1
    73       74           0
    73       75           0
    73       77           1
    73       89           3
    73      105           2
    74       10           4
    74       66           4
    74       73           2
    74       74           3
    74       76           3
    74       78           4
    74       90           0
    74      106           2
    75       11           1
    75       67           3
    75       73           0
    75       75           2
    75       76           1
    75       79           0
    75       91           2
    75      107           2
    76       12           2
    76       68           3
    76       74           4
    76       75           0
    76       76           4
    76       80           2
    76       92           2
    76      108           4
    77       13           1
    77       69           1
    77       73           3
    77       77           0
    77       78           0
    77       79           4
    77       93           2
    77      109           3
    78       14           4
    78       70           4
    78       74           2
    78       77           2
    78       78           3
    78       80           2
    78       94           2
    78      110           0
    79       15           1
    79       71           1
    79       75           0
    79       77           2
    79       79           3
    79       80           2
    79       95           4
    79      111           2
    80       16           1
    80       72           3
    80       76           4
    80       78           3
    80       79           0
    80       80           0
    80       96           3
    80      112           3
    81       17           4
    81       65           3
    81       81           0
    81       82           4
    81       83           3
    81       85           3
    81       89           0
    81      113           0
    82       18           0
    82       66           2
    82       81           3
    82       82           1
    82       84           2
    82       86           4
    82       90           3
    82      114           0
    83       19           1
    83       67           1
    83       81           3
    83       83           0
    83       84           3
    83       87           2
    83       91           0
    83      115           4
    84       20           1
    84       68           0
    84       82           1
    84       83           2
    84       84           4
    84       88           3
    84       92           2
    84      116           1
    85       21           2
    85       69           0
    85       81           1
    85       85           4
    85       86           4
    85       87           2
    85       93           4
    85      117           4
    86       22           2
    86       70           1
    86       82           4
    86       85           3
    86       86           0
    86       88           1
    86       94           2
    86      118           4
    87       23           3
    87       71           3
    87       83           3
    87       85           2
    87       87           1
    87       88           1
    87       95           0
    87      119           1
    88       24           2
    88       72           0
    88       84           4
    88       86           1
    88       87           3
    88       88           0
    88       96           4
    88      120           2
    89       25           4
    89       73           2
    89       81           2
    89       89           4
    89       90           4
    89       91           2
    89       93           4
    89      121           4
    90       26           2
    90       74           2
    90       82           2
    90       89           2
    90       90           4
    90       92           2
    90       94           2
    90      122           3
    91       27           0
    91       75           2
    91       83           1
    91       89           0
    91       91           0
    91       92           4
    91       95           3
    91      123           2
    92       28           1
    92       76           3
    92       84           4
    92       90           4
    92       91           0
    92       92           0
    92       96           0
    92      124           3
    93       29           4
    93       77           2
    93       85           0
    93       89           3
    93       93           0
    93       94           3
    93       95           0
    93      125           0
    94       30           3
    94       78           2
    94       86           4
    94       90           3
    94       93           2
    94       94           4
    94       96           1
    94      126           2
    95       31           2
    95       79           0
    95       87           1
    95       91           2
    95       93           2
    95       95           2
    95       96           4
    95      127           0
    96       32           1
    96       80           4
    96       88           2
    96       92           1
    96       94           1
    96       95           3
    96       96           0
    96      128           3
    97       33           3
    97       65           2
    97       97           3
    97       98           4
    97       99           0
    97      101           4
    97      105           2
    97      113           2
    98       34           4
    98       66           2
    98       97           0
    98       98           2
    98      100           2
    98      102           1
    98      106           4
    98      114           4
    99       35           2
    99       67           1
    99       97           1
    99       99           2
    99      100           4
    99      103           4
    99      107           3
    99      115           2
   100       36           4
   100       68           3
   100       98           4
   100       99           4
   100      100           0
   100      104           2
   100      108           4
   100      116           3
   101       37           0
   101       69           1
   101       97           3
   101      101           3
   101      102           4
   101      103           1
   101      109           1
   101      117           1
   102       38           4
   102       70           3
   102       98           2
   102      101           0
   102      102           0
   102      104           0
   102      110           1
   102      118           1
   103       39           1
   103       71           0
   103       99           4
   103      101           4
   103      103           4
   103      104           1
   103      111           2
   103      119           0
   104       40           3
   104       72           4
   104      100           4
   104      102           4
   104      103           4
   104      104           2
   104      112           4
   104      120           4
   105       41           2
   105       73           0
   105       97           0
   105      105           1
   105      106           1
   105      107           0
   105      109           2
   105      121           2
   106       42           4
   106       74           4
   106       98           1
   106      105           4
   106      106           0
   106      108           0
   106      110           2
   106      122           0
   107       43           0
   107       75           3
   107       99           1
   107      105           4
   107      107           0
   107      108           2
   107      111           0
   107      123           0
   108       44           4
   108       76           2
   108      100           1
   108      106           4
   108      107           0
   108      108           3
   108      112           0
   108      124           2
   109       45           2
   109       77           1
   109      101           0
   109      105           4
   109      109           4
   109      110           1
   109      111           1
   109      125           1
   110       46           3
   110       78           1
   110      102           3
   110      106           2
   110      109           1
   110      110           3
   110      112           3
   110      126           0
   111       47           0
   111       79           3
   111      103           3
   111      107           1
   111      109           1
   111      111           4
   111      112           1
   111      127           4
   112       48           0
   112       80           3
   112      104           2
   112      108           1
   112      110           2
   112      111           3
   112      112           1
   112      128           4
   113       49           1
   113       81           1
   113       97           1
   113      113           1
   113      114           3
   113      115           4
   113      117           2
   113      121           0
   114       50           4
   114       82           0
   114       98           3
   114      113           2
   114      114           3
   114      116           4
   114      118           3
   114      122           2
   115       51           2
   115       83           3
   115       99           1
   115      113           3
   115      115           2
   115      116           2
   115      119           0
   115      123           0
   116       52           1
   116       84           2
   116      100           0
   116      114           0
   116      115           0
   116      116           3
   116      120           4
   116      124           2
   117       53           1
   117       85           2
   117      101           2
   117      113           3
   117      117           4
   117      118           4
   117      119           0
   117      125           1
   118       54           3
   118       86           3
   118      102           4
   118      114           3
   118      117           2
   118      118           1
   118      120           0
   118      126           4
   119       55           1
   119       87           3
   119      103           3
   119      115           1
   119      117           4
   119      119           2
   119      120           0
   119      127           0
   120       56           0
   120       88           2
   120      104           0
   120      116           0
   120      118           4
   120      119           2
   120      120           0
   120      128           3
   121       57           4
   121       89           2
   121      105           0
   121      113           0
   121      121           3
   121      122           3
   121      123           3
   121      125           3
   122       58           2
   122       90           4
   122      106           1
   122      114           1
   122      121           2
   122      122           2
   122      124           0
   122      126           2
   123       59           2
   123       91           2
   123      107           2
   123      115           3
   123      121           0
   123      123           3
   123      124           4
   123      127           1
   124       60           2
   124       92           1
   124      108           3
   124      116           1
   124      122           1
   124      123           1
   124      124           4
   124      128           2
   125       61           1
   125       93           0
   125      109           1
   125      117           2
   125      121           3
   125      125           1
   125      126           4
   125      127           2
   126       62           1
   126       94           4
   126      110           4
   126      118           1
   126      122           0
   126      125           0
   126      126           1
   126      128           2
   127       63           0
   127       95           4
   127      111           0
   127      119           3
   127      123           3
   127      125           3
   127      127           0
   127      128           3
   128       64           3
   128       96           4
   128      112           3
   128      120           3
   128      124           3
   128      126           2
   128      127           4
   128      128           1
